Route 1: 0 3 30 50 56 36 100 0
Route 2: 0 18 66 32 47 49 24 0
Route 3: 0 9 35 4 27 15 10 57 67 83 16 20 0
Route 4: 0 97 80 95 38 60 19 71 52 40 82 48 0
Route 5: 0 76 62 98 28 85 34 21 6 53 75 37 65 0
Route 6: 0 63 33 96 23 14 25 0
Route 7: 0 58 8 81 51 74 45 91 72 68 5 54 0
Route 8: 0 7 46 43 41 78 39 61 0
Route 9: 0 44 86 92 55 93 69 87 0
Route 10: 0 17 77 12 22 2 42 89 26 1 31 0
Route 11: 0 59 79 70 88 13 11 84 99 94 90 0
Route 12: 0 73 29 64 0
